200
1000
799
794
794
787
785
779
779
778
778
774
773
771
771
760
757
752
749
749
742
740
736
730
709
709
707
703
703
702
700
698
697
693
691
691
688
687
685
682
681
671
664
658
654
653
648
647
645
641
637
636
634
633
625
622
613
611
609
607
607
606
606
603
599
599
594
590
588
585
581
578
570
567
567
561
558
555
551
550
548
541
535
534
528
526
524
522
521
518
515
513
506
506
503
500
500
497
495
491
484
480
477
476
472
462
460
460
460
457
455
455
453
452
451
450
447
446
445
444
442
441
440
440
434
429
429
423
416
408
406
406
406
405
404
401
395
383
379
375
372
371
369
369
369
359
357
352
350
341
340
335
335
334
333
333
330
328
327
327
326
321
321
321
308
306
302
301
298
290
290
288
287
286
286
285
284
271
269
267
261
260
257
248
247
244
233
232
232
231
228
225
225
220
216
216
214
210
207
205
204
201
